10
751 614 752  237
800 854 769  575
445 416 637  882
414 738 702  494
953 785 616  329
719 736 871  743
891 604 927  906
585 739 770  233
552 818 594  834
707 691 595  931
15
223 281 320  145 72
173 343 705  184 203
17 254 181  122 40
304 281 695  100 265
729 519 203  140 1
241 761 304  241 29
494 121 29  191 134
195 591 168  108 196
37 477 56  225 22
690 653 623  168 283
347 595 759  81 237
308 245 32  154 8
484 6 486  191 194
754 174 144  66 256
95 57 319  56 102
